TCS_Benchmarks/redos_fix/snort3_output_distinct_3620_3619_8_0.smt2
(set-logic QF_S)
(declare-const x String)
(assert (str.in.re x (re.inter  (re.++ (re.* (re.comp  (re.union  (str.to.re "\u{0a}")  (str.to.re "\u{0d}"))) ) (re.+  (re.union (re.range "\u{41}" "\u{5a}") (re.range "\u{61}" "\u{7a}")) ))  (re.++ (re.* (re.comp  (re.union  (str.to.re "\u{0a}")  (str.to.re "\u{0d}"))) ) (re.++  (re.++  (str.to.re "\u{2f}") (re.++  (re.union  (str.to.re "\u{6e}")  (str.to.re "\u{4e}")) (re.++  (re.union  (str.to.re "\u{65}")  (str.to.re "\u{45}")) (re.++  (re.union  (str.to.re "\u{77}")  (str.to.re "\u{57}")) (re.++ (re.opt  (re.union  (str.to.re "\u{73}")  (str.to.re "\u{53}")) ) (re.++  (str.to.re "\u{2f}") (re.++ (re.+  (re.union (re.range "\u{41}" "\u{5a}") (re.range "\u{61}" "\u{7a}")) )  (str.to.re "\u{2e}")))))))) (re.+  (re.union (re.range "\u{41}" "\u{5a}") (re.range "\u{61}" "\u{7a}")) ))) )))
(check-sat)
(get-model)