TCS_Benchmarks/redos_fix/snort3_output_distinct_3620_3619_8_0.txt
([^
]*)([A-Za-z]+)
([^
]*)(\/[nN][eE][wW][sS]?\/[A-Za-z]+\.)([A-Za-z]+)